\ENCODING=ISO-8859-1
\Problem name: IloCplex

Minimize
 obj: 40 gen(0)(1)(0)#0 + 45 gen(0)(3)(0)#2 + 42 gen(0)(5)(0)#4
      + 80 gen(0)(6)(0)#5 - 1000 dem(0)(1)(0)#6
Subject To
 fbDA(0)(1)(0)#0:    gen(0)(1)(0)#0 - flow(0)(1,2)(0)#7 + flow(0)(6,1)(0)#12
                      = 0
 fbDA(0)(2)(0)#1:    gen(0)(2)(0)#1 + flow(0)(1,2)(0)#7 - flow(0)(2,3)(0)#8
                      = 0
 fbDA(0)(3)(0)#2:    gen(0)(3)(0)#2 + flow(0)(2,3)(0)#8 - flow(0)(3,4)(0)#9
                      = 0
 fbDA(0)(4)(0)#3:    gen(0)(4)(0)#3 + flow(0)(3,4)(0)#9 - flow(0)(4,5)(0)#10
                      = 0
 fbDA(0)(5)(0)#4:    gen(0)(5)(0)#4 + gen(0)(6)(0)#5 + flow(0)(4,5)(0)#10
                     - flow(0)(5,6)(0)#11  = 0
 fbDA(0)(6)(0)#5:    - dem(0)(1)(0)#6 + flow(0)(5,6)(0)#11 - flow(0)(6,1)(0)#12
                      = 0
 dcDA(0)(1,2)(0)#6:  flow(0)(1,2)(0)#7 - 100 theta(0)(1)(0)#13
                     + 100 theta(0)(2)(0)#14  = 0
 dcDA(0)(2,3)(0)#7:  flow(0)(2,3)(0)#8 - 100 theta(0)(2)(0)#14
                     + 100 theta(0)(3)(0)#15  = 0
 dcDA(0)(3,4)(0)#8:  flow(0)(3,4)(0)#9 - 100 theta(0)(3)(0)#15
                     + 100 theta(0)(4)(0)#16  = 0
 dcDA(0)(4,5)(0)#9:  flow(0)(4,5)(0)#10 - 100 theta(0)(4)(0)#16
                     + 100 theta(0)(5)(0)#17  = 0
 dcDA(0)(5,6)(0)#10: flow(0)(5,6)(0)#11 - 100 theta(0)(5)(0)#17
                     + 100 theta(0)(6)(0)#18  = 0
 dcDA(0)(6,1)(0)#11: flow(0)(6,1)(0)#12 + 100 theta(0)(1)(0)#13
                     - 100 theta(0)(6)(0)#18  = 0
 gbuDA(0)(1)(0)#12:  gen(0)(1)(0)#0 <= 100
 gbdDA(0)(1)(0)#13:  gen(0)(1)(0)#0 >= 0
 gbuDA(0)(2)(0)#14:  gen(0)(2)(0)#1 <= 60
 gbdDA(0)(2)(0)#15:  gen(0)(2)(0)#1 >= 0
 gbuDA(0)(3)(0)#16:  gen(0)(3)(0)#2 <= 100
 gbdDA(0)(3)(0)#17:  gen(0)(3)(0)#2 >= 0
 gbuDA(0)(4)(0)#18:  gen(0)(4)(0)#3 <= 60
 gbdDA(0)(4)(0)#19:  gen(0)(4)(0)#3 >= 0
 gbuDA(0)(5)(0)#20:  gen(0)(5)(0)#4 <= 50
 gbdDA(0)(5)(0)#21:  gen(0)(5)(0)#4 >= 0
 gbuDA(0)(6)(0)#22:  gen(0)(6)(0)#5 <= 60
 gbdDA(0)(6)(0)#23:  gen(0)(6)(0)#5 >= 0
 dbuDA(0)(1)(0)#24:  dem(0)(1)(0)#6 <= 264
 dbdDA(0)(1)(0)#25:  dem(0)(1)(0)#6 >= 0
Bounds
 0 <= gen(0)(1)(0)#0 <= 100
 0 <= gen(0)(2)(0)#1 <= 100
 0 <= gen(0)(3)(0)#2 <= 100
 0 <= gen(0)(4)(0)#3 <= 100
 0 <= gen(0)(5)(0)#4 <= 50
 0 <= gen(0)(6)(0)#5 <= 60
 0 <= dem(0)(1)(0)#6 <= 264
      flow(0)(1,2)(0)#7 Free
      flow(0)(2,3)(0)#8 Free
      flow(0)(3,4)(0)#9 Free
      flow(0)(4,5)(0)#10 Free
      flow(0)(5,6)(0)#11 Free
-150 <= flow(0)(6,1)(0)#12 <= 150
-3.14159 <= theta(0)(1)(0)#13 <= 3.14159
-3.14159 <= theta(0)(2)(0)#14 <= 3.14159
-3.14159 <= theta(0)(3)(0)#15 <= 3.14159
-3.14159 <= theta(0)(4)(0)#16 <= 3.14159
-3.14159 <= theta(0)(5)(0)#17 <= 3.14159
-3.14159 <= theta(0)(6)(0)#18 <= 3.14159
End
